\ Model Staff Scheduling Problem with Skill Level Constraints
\ LP format - for model browsing. Use MPS format to capture full model detail.
Minimize
  x[0,0] + x[0,1] + x[0,2] + x[0,3] + x[0,4] + x[0,5] + x[0,6] + x[0,7]
   + x[0,8] + x[1,0] + x[1,1] + x[1,2] + x[1,3] + x[1,4] + x[1,5] + x[1,6]
   + x[1,7] + x[1,8] + x[2,0] + x[2,1] + x[2,2] + x[2,3] + x[2,4] + x[2,5]
   + x[2,6] + x[2,7] + x[2,8] + x[3,0] + x[3,1] + x[3,2] + x[3,3] + x[3,4]
   + x[3,5] + x[3,6] + x[3,7] + x[3,8] + x[4,0] + x[4,1] + x[4,2] + x[4,3]
   + x[4,4] + x[4,5] + x[4,6] + x[4,7] + x[4,8] + x[5,0] + x[5,1] + x[5,2]
   + x[5,3] + x[5,4] + x[5,5] + x[5,6] + x[5,7] + x[5,8] + x[6,0] + x[6,1]
   + x[6,2] + x[6,3] + x[6,4] + x[6,5] + x[6,6] + x[6,7] + x[6,8] + x[7,0]
   + x[7,1] + x[7,2] + x[7,3] + x[7,4] + x[7,5] + x[7,6] + x[7,7] + x[7,8]
Subject To
 R0: x[0,0] + x[1,0] + x[2,0] + x[3,0] + x[4,0] + x[5,0] + x[6,0] + x[7,0]
   >= 6
 R1: x[0,1] + x[1,1] + x[2,1] + x[3,1] + x[4,1] + x[5,1] + x[6,1] + x[7,1]
   >= 3
 R2: x[0,2] + x[1,2] + x[2,2] + x[3,2] + x[4,2] + x[5,2] + x[6,2] + x[7,2]
   >= 3
 R3: x[0,3] + x[1,3] + x[2,3] + x[3,3] + x[4,3] + x[5,3] + x[6,3] + x[7,3]
   >= 3
 R4: x[0,4] + x[1,4] + x[2,4] + x[3,4] + x[4,4] + x[5,4] + x[6,4] + x[7,4]
   >= 4
 R5: x[0,5] + x[1,5] + x[2,5] + x[3,5] + x[4,5] + x[5,5] + x[6,5] + x[7,5]
   >= 1
 R6: x[0,6] + x[1,6] + x[2,6] + x[3,6] + x[4,6] + x[5,6] + x[6,6] + x[7,6]
   >= 6
 R7: x[0,7] + x[1,7] + x[2,7] + x[3,7] + x[4,7] + x[5,7] + x[6,7] + x[7,7]
   >= 3
 R8: x[0,8] + x[1,8] + x[2,8] + x[3,8] + x[4,8] + x[5,8] + x[6,8] + x[7,8]
   >= 5
 R9: 10.89 x[0,0] + 10.67 x[0,1] + 8.59 x[0,2] + 6.23 x[0,3] + 5.97 x[0,4]
   + 5.4 x[0,5] + 4.88 x[0,6] + 5.99 x[0,7] + 9.12 x[0,8] <= 30.26
 R10: 10.89 x[1,0] + 10.67 x[1,1] + 8.59 x[1,2] + 6.23 x[1,3] + 5.97 x[1,4]
   + 5.4 x[1,5] + 4.88 x[1,6] + 5.99 x[1,7] + 9.12 x[1,8] <= 20.41
 R11: 10.89 x[2,0] + 10.67 x[2,1] + 8.59 x[2,2] + 6.23 x[2,3] + 5.97 x[2,4]
   + 5.4 x[2,5] + 4.88 x[2,6] + 5.99 x[2,7] + 9.12 x[2,8] <= 30.09
 R12: 10.89 x[3,0] + 10.67 x[3,1] + 8.59 x[3,2] + 6.23 x[3,3] + 5.97 x[3,4]
   + 5.4 x[3,5] + 4.88 x[3,6] + 5.99 x[3,7] + 9.12 x[3,8] <= 21.14
 R13: 10.89 x[4,0] + 10.67 x[4,1] + 8.59 x[4,2] + 6.23 x[4,3] + 5.97 x[4,4]
   + 5.4 x[4,5] + 4.88 x[4,6] + 5.99 x[4,7] + 9.12 x[4,8] <= 22.7
 R14: 10.89 x[5,0] + 10.67 x[5,1] + 8.59 x[5,2] + 6.23 x[5,3] + 5.97 x[5,4]
   + 5.4 x[5,5] + 4.88 x[5,6] + 5.99 x[5,7] + 9.12 x[5,8] <= 20.97
 R15: 10.89 x[6,0] + 10.67 x[6,1] + 8.59 x[6,2] + 6.23 x[6,3] + 5.97 x[6,4]
   + 5.4 x[6,5] + 4.88 x[6,6] + 5.99 x[6,7] + 9.12 x[6,8] <= 23.12
 R16: 10.89 x[7,0] + 10.67 x[7,1] + 8.59 x[7,2] + 6.23 x[7,3] + 5.97 x[7,4]
   + 5.4 x[7,5] + 4.88 x[7,6] + 5.99 x[7,7] + 9.12 x[7,8] <= 22.65
 R17: x[0,0] <= 0
 R18: x[0,1] <= 0
 R19: x[0,2] <= 0
 R20: x[0,3] <= 0
 R21: x[0,4] <= 0
 R22: x[0,5] <= 0
 R23: x[0,6] <= 0
 R24: x[0,7] <= 0
 R25: x[0,8] <= 0
 R26: x[1,0] <= 0
 R27: x[1,1] <= 0
 R28: x[1,2] <= 0
 R29: x[1,3] <= 0
 R30: x[1,4] <= 0
 R31: x[1,5] <= 0
 R32: x[1,6] <= 0
 R33: x[1,7] <= 0
 R34: x[1,8] <= 0
 R35: x[2,0] <= 1
 R36: x[2,1] <= 1
 R37: x[2,2] <= 0
 R38: x[2,3] <= 0
 R39: x[2,4] <= 1
 R40: x[2,5] <= 0
 R41: x[2,6] <= 1
 R42: x[2,7] <= 0
 R43: x[2,8] <= 1
 R44: x[3,0] <= 0
 R45: x[3,1] <= 0
 R46: x[3,2] <= 0
 R47: x[3,3] <= 0
 R48: x[3,4] <= 0
 R49: x[3,5] <= 0
 R50: x[3,6] <= 0
 R51: x[3,7] <= 0
 R52: x[3,8] <= 0
 R53: x[4,0] <= 0
 R54: x[4,1] <= 0
 R55: x[4,2] <= 0
 R56: x[4,3] <= 0
 R57: x[4,4] <= 0
 R58: x[4,5] <= 0
 R59: x[4,6] <= 0
 R60: x[4,7] <= 0
 R61: x[4,8] <= 0
 R62: x[5,0] <= 0
 R63: x[5,1] <= 0
 R64: x[5,2] <= 0
 R65: x[5,3] <= 0
 R66: x[5,4] <= 0
 R67: x[5,5] <= 0
 R68: x[5,6] <= 0
 R69: x[5,7] <= 0
 R70: x[5,8] <= 1
 R71: x[6,0] <= 1
 R72: x[6,1] <= 1
 R73: x[6,2] <= 0
 R74: x[6,3] <= 0
 R75: x[6,4] <= 1
 R76: x[6,5] <= 0
 R77: x[6,6] <= 1
 R78: x[6,7] <= 0
 R79: x[6,8] <= 1
 R80: x[7,0] <= 1
 R81: x[7,1] <= 1
 R82: x[7,2] <= 1
 R83: x[7,3] <= 1
 R84: x[7,4] <= 1
 R85: x[7,5] <= 1
 R86: x[7,6] <= 1
 R87: x[7,7] <= 1
 R88: x[7,8] <= 1
Bounds
End
